
Gurobi 13.0.2 (win64) logging started Thu Jul 23 05:01:42 2026

Set parameter LogFile to value "E:\codes\ExactEBRP\results\gf_cplex_equivalent_gurobi_replica_round28\runs\stage2__V12_M1__c3_replica__300s\external\native_logs\R.1.0.0.0.1.0.1.1.0.0_lp.gurobi.log"
Gurobi Optimizer version 13.0.2 build v13.0.2rc1 (win64 - Windows 10.0 (19045.2))

CPU model: 12th Gen Intel(R) Core(TM) i7-12700KF, instruction set [SSE2|AVX|AVX2]
Thread count: 12 physical cores, 20 logical processors, using up to 1 threads

Non-default parameters:
TimeLimit  242.3321499
MIPGap  0
MIPGapAbs  0
LogToConsole  0
Threads  1

Optimize a model with 6225 rows, 648 columns and 59365 nonzeros (Min)
Model fingerprint: 0xf5e49908
Model has 13 linear objective coefficients
Coefficient statistics:
  Matrix range     [2e-03, 1e+05]
  Objective range  [2e-03, 1e+00]
  Bounds range     [1e-01, 8e+01]
  RHS range        [3e-02, 1e+06]

Presolve removed 251 rows and 38 columns
Presolve time: 0.02s
Presolved: 5974 rows, 611 columns, 58572 nonzeros

Iteration    Objective       Primal Inf.    Dual Inf.      Time
       0    1.9838715e-01   1.395963e+02   0.000000e+00      0s
     672    3.0603380e-01   0.000000e+00   0.000000e+00      0s

Solved in 672 iterations and 0.05 seconds (0.19 work units)
Optimal objective  3.060337972e-01

User-callback calls 814, time in user-callback 0.00 sec
